This is Ipopt version 3.14.16, running with linear solver MUMPS 5.7.3.

Number of nonzeros in equality constraint Jacobian...:        0
Number of nonzeros in inequality constraint Jacobian.:      306
Number of nonzeros in Lagrangian Hessian.............:        0

Total number of variables............................:       17
                     variables with only lower bounds:        0
                variables with lower and upper bounds:       17
                     variables with only upper bounds:        0
Total number of equality constraints.................:        0
Total number of inequality constraints...............:       18
        inequality constraints with only lower bounds:        0
   inequality constraints with lower and upper bounds:        0
        inequality constraints with only upper bounds:       18

iter    objective    inf_pr   inf_du lg(mu)  ||d||  lg(rg) alpha_du alpha_pr  ls
   0  4.4865720e-02 3.90e+00 5.87e-01   0.0 0.00e+00    -  0.00e+00 0.00e+00   0
   1  1.0784764e-01 1.12e+00 2.87e+00  -1.0 1.46e+00    -  4.16e-01 7.91e-01f  1
   2  1.3047867e-01 3.58e-01 1.89e+00  -1.0 5.64e-01    -  9.98e-01 6.85e-01f  1
   3  1.4283527e-01 0.00e+00 5.60e-02  -1.7 2.65e-01    -  9.99e-01 1.00e+00h  1
   4  1.4292385e-01 0.00e+00 4.55e-03  -3.3 4.79e-02    -  9.98e-01 1.00e+00h  1
   5  1.4062900e-01 2.36e-02 1.49e-03  -3.7 6.55e-01    -  9.93e-01 1.00e+00h  1
   6  1.4098512e-01 4.63e-03 3.54e-03  -4.4 1.24e-01    -  8.12e-01 1.00e+00h  1
   7  1.4104621e-01 4.08e-04 5.21e-04  -5.2 8.57e-02    -  1.00e+00 1.00e+00h  1
   8  1.4098712e-01 9.14e-04 3.65e-04  -6.0 7.09e-02    -  1.00e+00 1.00e+00h  1
   9  1.4100774e-01 5.82e-05 9.85e-05  -7.5 1.39e-02    -  1.00e+00 1.00e+00h  1

Number of Iterations....: 9

                                   (scaled)                 (unscaled)
Objective...............:   1.4100773879827497e-01    1.4100773879827497e-01
Dual infeasibility......:   9.8469759640932225e-05    9.8469759640932225e-05
Constraint violation....:   5.8193263476386267e-05    5.8193263476386267e-05
Variable bound violation:   0.0000000000000000e+00    0.0000000000000000e+00
Complementarity.........:   5.6606883039133386e-07    5.6606883039133386e-07
Overall NLP error.......:   9.8469759640932225e-05    9.8469759640932225e-05


Number of objective function evaluations             = 10
Number of objective gradient evaluations             = 10
Number of equality constraint evaluations            = 0
Number of inequality constraint evaluations          = 10
Number of equality constraint Jacobian evaluations   = 0
Number of inequality constraint Jacobian evaluations = 10
Number of Lagrangian Hessian evaluations             = 0
Total seconds in IPOPT                               = 4.396

EXIT: Optimal Solution Found.
